(set-info :smt-lib-version 2.6)
(set-logic QF_UFLRA)
(set-info :source |
MathSat group

|)
(set-info :category "random")
(set-info :status unsat)
(declare-fun f0_1 (Real) Real)
(declare-fun f0_2 (Real Real) Real)
(declare-fun f0_3 (Real Real Real) Real)
(declare-fun f0_4 (Real Real Real Real) Real)
(declare-fun f1_1 (Real) Real)
(declare-fun f1_2 (Real Real) Real)
(declare-fun f1_3 (Real Real Real) Real)
(declare-fun f1_4 (Real Real Real Real) Real)
(declare-fun x0 () Real)
(declare-fun x1 () Real)
(declare-fun x2 () Real)
(declare-fun x3 () Real)
(declare-fun x4 () Real)
(declare-fun x5 () Real)
(declare-fun x6 () Real)
(declare-fun x7 () Real)
(declare-fun x8 () Real)
(declare-fun x9 () Real)
(declare-fun x10 () Real)
(declare-fun x11 () Real)
(declare-fun x12 () Real)
(declare-fun x13 () Real)
(declare-fun x14 () Real)
(declare-fun x15 () Real)
(declare-fun x16 () Real)
(declare-fun x17 () Real)
(declare-fun x18 () Real)
(declare-fun x19 () Real)
(declare-fun P0 () Bool)
(declare-fun P1 () Bool)
(declare-fun P2 () Bool)
(declare-fun P3 () Bool)
(declare-fun P4 () Bool)
(declare-fun P5 () Bool)
(declare-fun P6 () Bool)
(declare-fun P7 () Bool)
(declare-fun P8 () Bool)
(declare-fun P9 () Bool)
(declare-fun P10 () Bool)
(declare-fun P11 () Bool)
(declare-fun P12 () Bool)
(declare-fun P13 () Bool)
(declare-fun P14 () Bool)
(declare-fun P15 () Bool)
(declare-fun P16 () Bool)
(declare-fun P17 () Bool)
(declare-fun P18 () Bool)
(declare-fun P19 () Bool)
(assert (let ((?v_19 (f0_2 x4 x0)) (?v_6 (f1_1 x14))) (let ((?v_48 (f0_2 x0 ?v_6)) (?v_0 (f0_2 x5 x7)) (?v_10 (f1_2 x7 x7)) (?v_57 (f1_1 x2)) (?v_2 (f1_1 x3))) (let ((?v_5 (f0_2 ?v_0 x15)) (?v_114 (f1_1 (f0_1 x19))) (?v_1 (f1_1 x12)) (?v_9 (* 18 x15))) (let ((?v_35 (+ (- ?v_9 (* 10 x4)) (* 3 x9))) (?v_145 (f1_2 x10 x2)) (?v_94 (f1_1 x11)) (?v_24 (f1_1 ?v_1)) (?v_106 (* 26 x8)) (?v_16 (f1_1 x19)) (?v_20 (f1_1 x15)) (?v_30 (+ (- (* 18 x17) (* 22 x9)) (* 19 x0))) (?v_89 (- (- (* 2 x8) (* 28 x13)) (* 9 x15))) (?v_60 (f0_2 ?v_0 x4)) (?v_7 (f0_2 x7 x6)) (?v_67 (f1_1 x5)) (?v_65 (f1_1 x8)) (?v_77 (f1_1 ?v_5)) (?v_39 (f1_2 x7 x6)) (?v_8 (f0_2 x7 x9)) (?v_58 (f1_2 x6 x5))) (let ((?v_29 (f0_2 ?v_19 ?v_30)) (?v_31 (f1_2 x16 x9)) (?v_90 (f0_2 x7 ?v_7)) (?v_23 (f0_2 x16 x16)) (?v_108 (< ?v_67 28)) (?v_209 (< ?v_77 0)) (?v_56 (= ?v_8 (f0_1 x1))) (?v_185 (< x16 15)) (?v_63 (< ?v_58 19)) (?v_92 (< ?v_16 2)) (?v_115 (< ?v_7 23))) (let ((?v_70 (< ?v_23 0)) (?v_105 (= ?v_8 ?v_6)) (?v_261 (< ?v_58 7)) (?v_194 (< ?v_16 4)) (?v_42 (< ?v_24 1)) (?v_21 (< x15 19)) (?v_154 (< (+ (- (* 20 x5) ?v_106) (* 23 x14)) 12)) (?v_153 (< ?v_8 4)) (?v_140 (< x5 9)) (?v_149 (= ?v_10 (+ (- (* 13 x5) (* 27 x15)) (* 14 x13)))) (?v_122 (= (f0_2 x19 x17) ?v_94)) (?v_182 (= ?v_30 ?v_8)) (?v_148 (= x18 ?v_90)) (?v_233 (< x9 18)) (?v_117 (= x6 x17)) (?v_215 (< x2 11)) (?v_181 (< ?v_29 16)) (?v_247 (< ?v_39 1)) (?v_54 (< ?v_65 26)) (?v_225 (= ?v_145 (f1_1 x0))) (?v_163 (< ?v_39 12)) (?v_87 (< ?v_48 5)) (?v_129 (= x18 ?v_31)) (?v_26 (< ?v_1 6)) (?v_110 (= (f1_2 ?v_89 ?v_57) ?v_58)) (?v_50 (< ?v_16 27)) (?v_101 (< ?v_16 10)) (?v_132 (< ?v_94 23)) (?v_128 (= (f1_2 x6 x11) ?v_77)) (?v_152 (< x1 3)) (?v_159 (< (f1_2 x14 x5) 0)) (?v_68 (= x19 ?v_8))) (let ((?v_3 (not ?v_50)) (?v_104 (not P1)) (?v_38 (not P2)) (?v_236 (not P11)) (?v_95 (not P9)) (?v_170 (not ?v_105)) (?v_82 (not ?v_153)) (?v_32 (not P15)) (?v_81 (not P18)) (?v_228 (not P7)) (?v_88 (not ?v_21)) (?v_99 (not ?v_185)) (?v_143 (not P3)) (?v_86 (not P19)) (?v_186 (not ?v_70)) (?v_27 (not ?v_42)) (?v_239 (not P6)) (?v_223 (not ?v_26)) (?v_43 (not ?v_182)) (?v_137 (not ?v_163)) (?v_91 (not P16)) (?v_75 (not P13)) (?v_136 (not ?v_63)) (?v_195 (not ?v_181)) (?v_123 (not ?v_233)) (?v_162 (not P5)) (?v_139 (not ?v_110)) (?v_222 (not ?v_247)) (?v_113 (not ?v_209)) (?v_167 (not ?v_159)) (?v_187 (not ?v_68)) (?v_216 (not P12)) (?v_175 (not ?v_92)) (?v_118 (not ?v_122)) (?v_155 (not P0)) (?v_178 (not ?v_54)) (?v_135 (not ?v_101)) (?v_259 (not ?v_154)) (?v_172 (not ?v_115)) (?v_201 (not ?v_108)) (?v_174 (not ?v_152)) (?v_183 (not ?v_117)) (?v_190 (not ?v_194)) (?v_177 (not P8)) (?v_253 (not ?v_261)) (?v_188 (not ?v_140)) (?v_234 (not ?v_149)) (?v_150 (not ?v_128)) (?v_249 (not ?v_129)) (?v_243 (not P4)) (?v_262 (or ?v_140 P10)) (?v_210 (not ?v_225)) (?v_245 (not ?v_148)) (?v_193 (not ?v_132))) (let ((?v_204 (or ?v_154 ?v_82)) (?v_208 (not ?v_56)) (?v_179 (not P17)) (?v_196 (not P14)) (?v_235 (not ?v_87)) (?v_229 (not ?v_215)) (?v_255 (not P10)) (?v_14 (- (+ (* (- 26) ?v_60) (* 26 ?v_7)) (* 27 x14)))) (let ((?v_25 (= (f1_1 ?v_14) x2)) (?v_121 (- (+ (* (- 1) ?v_0) (* 17 ?v_2)) (* 19 ?v_6)))) (let ((?v_52 (< (- (- (* 10 ?v_121) (* 29 ?v_39)) (* 5 ?v_24)) (- 22))) (?v_40 (< ?v_114 (- 8)))) (let ((?v_111 (not ?v_40)) (?v_18 (< ?v_31 (- 17)))) (let ((?v_119 (not ?v_18)) (?v_4 (+ (- (* (- 11) x6) (* 20 x13)) (* 5 x8)))) (let ((?v_171 (< ?v_4 27)) (?v_11 (< ?v_20 (- 20))) (?v_17 (< ?v_35 (- 26))) (?v_33 (- (- (* (- 14) x15) (* 21 ?v_19)) (* 10 ?v_5)))) (let ((?v_116 (= ?v_10 ?v_33))) (let ((?v_76 (not ?v_116)) (?v_205 (< (+ (- (* (- 22) x4) (* 18 ?v_2)) (* 28 x5)) 0))) (let ((?v_226 (not ?v_205)) (?v_12 (f0_1 ?v_4))) (let ((?v_22 (f1_1 ?v_12))) (let ((?v_212 (= ?v_22 ?v_5))) (let ((?v_72 (not ?v_212)) (?v_37 (- (+ (* (- 7) x7) (* 4 x3)) ?v_9))) (let ((?v_46 (= (f0_1 ?v_37) x8)) (?v_15 (< x19 (- 4)))) (let ((?v_55 (not ?v_15)) (?v_78 (< ?v_10 (- 26))) (?v_13 (= ?v_12 ?v_23)) (?v_36 (< (f1_1 x13) (- 19))) (?v_147 (< ?v_14 (- 12)))) (let ((?v_84 (not ?v_147)) (?v_79 (- (+ (* (- 6) x17) (* 2 x2)) (* 23 x0)))) (let ((?v_34 (< ?v_79 (- 4)))) (let ((?v_142 (not ?v_34)) (?v_109 (not ?v_17)) (?v_192 (< x0 (- 5)))) (let ((?v_47 (not ?v_192)) (?v_102 (< ?v_57 (- 27)))) (let ((?v_66 (not ?v_102)) (?v_198 (< ?v_29 (- 29))) (?v_203 (< ?v_20 (- 24)))) (let ((?v_131 (not ?v_203)) (?v_64 (+ (* (- 17) x15) (* 24 (+ (- (* (- 15) x17) (* 26 ?v_10)) (* 4 x9))) (* 21 x14)))) (let ((?v_28 (< ?v_64 24))) (let ((?v_219 (not ?v_28)) (?v_45 (< ?v_22 17)) (?v_107 (not ?v_25)) (?v_112 (< ?v_29 (- 3))) (?v_160 (< (f1_2 ?v_1 ?v_33) 4))) (let ((?v_41 (not ?v_160)) (?v_53 (< ?v_35 (- 2))) (?v_49 (< ?v_37 5))) (let ((?v_164 (not ?v_49)) (?v_51 (< x2 (- 8))) (?v_44 (< (- (+ (* (- 10) ?v_67) (* 25 ?v_5)) (* 27 ?v_48)) (- 12)))) (let ((?v_254 (not ?v_44)) (?v_230 (< x15 (- 26)))) (let ((?v_124 (not ?v_230)) (?v_169 (< ?v_37 (- 18))) (?v_125 (not ?v_45)) (?v_260 (or ?v_46 ?v_195)) (?v_231 (< (f1_2 x8 x2) (- 23))) (?v_59 (< ?v_19 (- 16))) (?v_197 (< (- (+ (* (- 29) x17) (* 8 x17)) (* 16 x18)) 18))) (let ((?v_98 (not ?v_197)) (?v_74 (not ?v_52)) (?v_100 (< ?v_94 (- 6))) (?v_61 (not ?v_53)) (?v_126 (< x7 (- 3))) (?v_97 (< ?v_145 (- 7)))) (let ((?v_146 (not ?v_97)) (?v_217 (not ?v_59)) (?v_62 (< ?v_14 4)) (?v_232 (< ?v_16 (- 23)))) (let ((?v_144 (not ?v_232)) (?v_130 (< ?v_60 (- 23))) (?v_83 (not ?v_62)) (?v_69 (< ?v_33 (- 13)))) (let ((?v_93 (not ?v_69)) (?v_180 (= ?v_64 ?v_65)) (?v_96 (< x8 (- 18))) (?v_80 (< ?v_10 (- 16))) (?v_151 (< ?v_37 (- 24)))) (let ((?v_73 (not ?v_151)) (?v_71 (= ?v_4 ?v_16))) (let ((?v_127 (not ?v_71)) (?v_257 (or ?v_72 ?v_73)) (?v_85 (= ?v_1 (- (+ (* (- 8) x4) (* 5 x15)) (* 6 x7))))) (let ((?v_221 (not ?v_85)) (?v_220 (not ?v_78)) (?v_157 (= ?v_79 ?v_24))) (let ((?v_165 (not ?v_157)) (?v_161 (< ?v_89 (- 9)))) (let ((?v_213 (not ?v_161)) (?v_134 (< ?v_90 (- 4))) (?v_141 (not ?v_96)) (?v_237 (< ?v_57 (- 11)))) (let ((?v_103 (not ?v_237)) (?v_158 (f0_2 (+ (* (- 13) x9) (* 15 x9) ?v_106) ?v_22))) (let ((?v_133 (< ?v_158 4)) (?v_184 (not ?v_46)) (?v_120 (= (- (- (* (- 9) ?v_16) (* 14 ?v_20)) (* 7 ?v_114)) (f1_2 x6 x3))) (?v_207 (< ?v_121 22))) (let ((?v_176 (not ?v_207)) (?v_156 (< (- (+ (* (- 2) (f1_2 x9 x5)) (* 2 ?v_57)) (* 21 (- (- (* 6 ?v_20) (* 8 ?v_121)) (* 11 x9)))) 17)) (?v_256 (not ?v_130)) (?v_252 (not ?v_134)) (?v_138 (= ?v_121 ?v_35)) (?v_227 (not ?v_133)) (?v_168 (not ?v_80)) (?v_166 (< ?v_158 21))) (let ((?v_211 (not ?v_166)) (?v_173 (not ?v_171)) (?v_189 (not ?v_138)) (?v_258 (< ?v_158 (- 22)))) (let ((?v_251 (not ?v_258)) (?v_224 (not ?v_156)) (?v_200 (not ?v_180)) (?v_250 (< ?v_33 28))) (let ((?v_206 (not ?v_250)) (?v_214 (not ?v_112)) (?v_199 (not ?v_126)) (?v_191 (< ?v_79 15)) (?v_242 (not ?v_51)) (?v_202 (not ?v_36)) (?v_218 (not ?v_198)) (?v_246 (not ?v_100)) (?v_238 (not ?v_169)) (?v_240 (not ?v_13)) (?v_244 (not ?v_11))) (let ((?v_241 (not ?v_191)) (?v_248 (not ?v_231))) (and (and (and (and (and (and (and (and (and (and (and (and (and (and (and (and (and (and (and (and (and (and (and (and (and (and (and (and (and (and (and (and (and (and (and (and (and (and (and (and (and (and (and (and (and (and (and (and (and (and (and (and (and (and (and (and (and (and (and (and (and (and (and (and (and (and (and (and (and (and (and (and (and (and (and (and (and (and (and (and (and (and (and (and (and (and (and (and (and (and (and (and (and (and (and (and (and (and (and (and (and (and (and (and (and (and (and (and (and (and (and (and (and (and (and (and (and (and (and (and (and (and (and (and (and (and (and (and (and (and (and (and (and (and (and (and (and (and (and (and (and (and (and (and (and (and (and (and (and (and (and (and (and (and (and (and (and (and (and (and (and (and (and (and (and (and (and (and (and (and (and (and (and (and (and (and (and (and (and (and (and (and (and (and (and (and (and (and (and (and (and (and (and (and (and (and (and (and (and (and (and (and (and (and (and (and (and (and (and (and (and (and (and (and (and (and (and (and (and (and (and (and (and (and (and (and (and (and (and (and (and (and (and (and (and (and (and (and (and (and (and (and (and (and (and (and (and (and (and (and (and (and (and (and (and (and (and (and (and (and (and (and (and (and (and (and (and (and (and (and (and (and (and (and (and (and (and (and (and (and (and (and (and (and (and (and (and (and (and (and (and (and (and (and (and (and (and (and (and (and (and (and (and (and (and (and (and (and (and (and (and (and (and (and (and (and (and (and (and (and (and (and (and (and (and (and (and (and (and (and (and (and (and (and (and (and (and (and (and (and (and (and (and (and (and (and (and (and (and (and (and (and (and (and (and (and (and (and (and (and (and (and (and (and (and (and (and (and (and (and (and (and (and (and (and (and (and (and (and (and (and (and (and (and (and (and (and (and (and (and (and (and (and (and (and (and (and (and (and (and (and (and (and (and (and (and (and (and (and (and (and (and (and (and (and (and (and (and (and (and (and (and (and (and (and (and (and (and (and (and (and (and (and (and (and (and (and (and (and (and (and (and (and (and (and (and (and (and (and (and (and (and (and (and (and (and (and (and (and (and (and (and (and (and (and (and (and (and (and (and (and (and (and (and (and (and (and (and (and (and (and (and (and (and (and (and (and (and (and (and (and (and (and (and (and (and (and (and (and (or (or ?v_26 P10) ?v_3) (or (or ?v_25 ?v_52) ?v_111)) (or (or ?v_119 ?v_104) ?v_171)) (or (or ?v_11 ?v_17) ?v_38)) (or (or ?v_76 ?v_236) ?v_226)) (or (or ?v_95 ?v_3) ?v_72)) (or (or ?v_170 ?v_148) ?v_82)) (or (or ?v_46 ?v_55) ?v_78)) (or (or ?v_11 ?v_13) ?v_32)) (or (or ?v_81 ?v_228) ?v_13)) (or (or ?v_36 P15) ?v_88)) (or (or P13 ?v_84) ?v_68)) (or (or ?v_99 ?v_15) ?v_142)) (or (or ?v_92 ?v_109) ?v_143)) (or (or ?v_47 ?v_66) ?v_18)) (or (or P15 ?v_198) ?v_86)) (or (or ?v_131 P10) ?v_21)) (or (or ?v_219 ?v_45) ?v_56)) (or (or ?v_186 ?v_27) ?v_239)) (or (or ?v_107 ?v_223) ?v_27)) (or (or P2 ?v_28) ?v_112)) (or (or ?v_43 ?v_129) ?v_32)) (or (or ?v_41 ?v_34) ?v_53)) (or (or ?v_36 ?v_164) ?v_11)) (or (or ?v_51 ?v_38) ?v_137)) (or (or ?v_54 P12) ?v_91)) (or (or ?v_254 ?v_40) ?v_41)) (or (or ?v_124 ?v_42) ?v_75)) (or (or ?v_40 ?v_43) ?v_169)) (or (or ?v_136 ?v_44) ?v_125)) (or ?v_260 ?v_231)) (or (or ?v_59 ?v_34) ?v_98)) (or (or ?v_26 ?v_47) P1)) (or (or ?v_123 ?v_87) ?v_49)) (or (or ?v_50 ?v_51) ?v_74)) (or (or P7 ?v_100) ?v_61)) (or (or ?v_126 P17) ?v_54)) (or (or ?v_55 ?v_162) ?v_56)) (or (or ?v_139 ?v_146) ?v_217)) (or (or P4 ?v_40) ?v_222)) (or (or ?v_62 ?v_27) ?v_144)) (or (or ?v_130 ?v_17) ?v_61)) (or (or ?v_83 ?v_63) ?v_93)) (or (or ?v_180 P1) ?v_66)) (or (or ?v_50 ?v_96) ?v_80)) (or (or ?v_73 P17) ?v_108)) (or (or ?v_68 P18) ?v_127)) (or (or ?v_27 ?v_69) ?v_70)) (or (or P6 ?v_71) ?v_62)) (or ?v_257 ?v_74)) (or (or ?v_59 ?v_45) ?v_113)) (or (or ?v_75 ?v_42) ?v_221)) (or (or ?v_101 ?v_76) P16)) (or (or ?v_66 ?v_128) ?v_220)) (or (or ?v_165 ?v_80) ?v_81)) (or (or ?v_167 ?v_82) P15)) (or (or ?v_32 ?v_83) ?v_81)) (or (or ?v_84 ?v_85) ?v_86)) (or (or ?v_3 ?v_87) ?v_88)) (or (or ?v_213 ?v_134) ?v_187)) (or (or ?v_91 ?v_216) P15)) (or (or ?v_175 ?v_93) ?v_118)) (or (or ?v_56 ?v_95) ?v_117)) (or (or ?v_141 ?v_73) ?v_26)) (or (or ?v_103 ?v_97) ?v_155)) (or (or ?v_98 P15) ?v_99)) (or (or ?v_74 ?v_178) ?v_100)) (or (or ?v_68 ?v_135) ?v_102)) (or (or ?v_82 ?v_103) ?v_133)) (or (or ?v_104 ?v_105) ?v_69)) (or (or ?v_259 ?v_15) ?v_107)) (or (or ?v_172 ?v_59) ?v_201)) (or (or ?v_47 ?v_109) ?v_78)) (or (or P2 ?v_80) ?v_82)) (or (or ?v_184 ?v_110) ?v_111)) (or (or ?v_112 ?v_59) ?v_174)) (or (or ?v_105 ?v_113) ?v_120)) (or (or ?v_115 ?v_116) ?v_183)) (or (or ?v_101 ?v_118) ?v_190)) (or (or ?v_177 ?v_116) ?v_119)) (or (or ?v_111 ?v_17) ?v_15)) (or (or ?v_120 ?v_91) ?v_176)) (or (or P3 ?v_49) ?v_96)) (or (or ?v_156 ?v_122) ?v_123)) (or (or ?v_124 ?v_253) ?v_86)) (or (or ?v_125 ?v_132) ?v_126)) (or (or ?v_127 ?v_28) ?v_188)) (or (or ?v_17 ?v_52) ?v_234)) (or (or ?v_150 ?v_32) ?v_249)) (or (or ?v_256 ?v_243) ?v_131)) (or (or ?v_132 ?v_133) ?v_116)) (or (or P11 P19) ?v_252)) (or (or P18 ?v_85) ?v_13)) (or (or ?v_135 ?v_47) ?v_74)) (or (or ?v_88 ?v_136) P13)) (or (or ?v_137 ?v_102) P16)) (or (or ?v_93 ?v_68) P3)) (or (or ?v_50 ?v_62) ?v_132)) (or (or ?v_66 ?v_136) ?v_138)) (or (or ?v_44 ?v_138) ?v_50)) (or (or ?v_227 ?v_139) P8)) (or ?v_262 ?v_131)) (or (or ?v_141 ?v_83) ?v_142)) (or (or ?v_32 ?v_92) ?v_103)) (or (or ?v_122 ?v_143) ?v_144)) (or (or ?v_210 ?v_72) ?v_146)) (or (or ?v_66 ?v_147) ?v_108)) (or (or ?v_245 ?v_193) ?v_140)) (or (or ?v_43 P7) ?v_11)) (or (or P13 ?v_149) ?v_96)) (or (or ?v_150 ?v_151) ?v_152)) (or (or ?v_146 ?v_91) P11)) (or (or ?v_153 ?v_154) ?v_53)) (or (or ?v_168 ?v_135) ?v_49)) (or (or ?v_155 ?v_156) ?v_104)) (or (or ?v_157 ?v_144) ?v_211)) (or (or ?v_159 ?v_160) ?v_51)) (or ?v_204 ?v_161)) (or (or ?v_100 ?v_107) ?v_162)) (or (or ?v_163 ?v_99) ?v_139)) (or (or ?v_164 ?v_96) ?v_165)) (or (or ?v_208 ?v_42) ?v_144)) (or (or ?v_96 ?v_166) ?v_132)) (or (or ?v_167 ?v_168) ?v_91)) (or (or ?v_21 ?v_93) P18)) (or (or ?v_72 ?v_169) ?v_102)) (or (or ?v_179 ?v_115) ?v_196)) (or (or ?v_66 ?v_170) P3)) (or (or ?v_173 ?v_189) ?v_42)) (or (or ?v_52 ?v_172) ?v_251)) (or (or ?v_153 ?v_46) P11)) (or (or ?v_224 ?v_50) ?v_49)) (or (or ?v_74 ?v_173) ?v_133)) (or (or ?v_174 ?v_111) ?v_44)) (or (or ?v_26 ?v_103) ?v_168)) (or (or ?v_56 ?v_11) ?v_169)) (or (or ?v_141 ?v_82) ?v_175)) (or (or ?v_123 ?v_176) ?v_235)) (or (or ?v_70 ?v_135) ?v_177)) (or (or ?v_86 P10) ?v_36)) (or (or ?v_32 ?v_178) P11)) (or (or ?v_179 P4) ?v_72)) (or (or ?v_200 ?v_119) ?v_181)) (or (or ?v_206 ?v_38) ?v_164)) (or (or ?v_159 ?v_171) ?v_182)) (or (or ?v_11 ?v_141) ?v_52)) (or (or ?v_214 P17) ?v_181)) (or (or ?v_199 ?v_183) ?v_184)) (or (or ?v_150 ?v_86) ?v_25)) (or (or ?v_185 ?v_186) ?v_59)) (or (or P4 ?v_187) ?v_26)) (or (or ?v_191 ?v_43) ?v_153)) (or (or ?v_171 ?v_107) ?v_188)) (or (or P19 ?v_117) ?v_139)) (or (or ?v_45 ?v_128) P16)) (or (or ?v_83 ?v_112) ?v_171)) (or (or ?v_189 ?v_175) ?v_242)) (or (or ?v_186 ?v_170) ?v_91)) (or (or ?v_190 ?v_191) ?v_93)) (or (or ?v_202 ?v_192) ?v_76)) (or (or ?v_112 ?v_193) ?v_194)) (or (or ?v_44 ?v_170) ?v_11)) (or (or ?v_80 ?v_112) ?v_34)) (or (or ?v_98 ?v_195) ?v_97)) (or (or ?v_32 ?v_44) ?v_115)) (or (or P0 ?v_87) ?v_193)) (or (or ?v_120 ?v_83) ?v_177)) (or (or ?v_72 ?v_137) ?v_78)) (or (or ?v_172 ?v_196) ?v_134)) (or (or ?v_111 ?v_131) ?v_197)) (or (or ?v_105 ?v_50) ?v_218)) (or (or ?v_157 ?v_118) ?v_120)) (or (or ?v_146 ?v_53) ?v_199)) (or (or ?v_84 ?v_146) ?v_138)) (or (or ?v_87 ?v_164) ?v_200)) (or (or ?v_197 ?v_201) ?v_183)) (or (or ?v_246 ?v_202) ?v_184)) (or (or ?v_134 ?v_203) ?v_153)) (or (or ?v_185 ?v_238) ?v_93)) (or ?v_204 ?v_18)) (or (or ?v_205 ?v_132) ?v_152)) (or (or ?v_115 ?v_192) P16)) (or (or ?v_174 P12) ?v_194)) (or (or ?v_44 ?v_154) P19)) (or (or ?v_183 ?v_183) ?v_84)) (or (or ?v_155 ?v_91) ?v_157)) (or (or ?v_27 P4) ?v_116)) (or (or ?v_149 ?v_83) ?v_206)) (or (or ?v_207 ?v_208) ?v_91)) (or (or ?v_209 ?v_165) ?v_34)) (or (or ?v_125 ?v_208) P7)) (or (or ?v_210 ?v_229) ?v_211)) (or (or ?v_32 ?v_212) ?v_66)) (or (or ?v_117 ?v_213) P17)) (or (or ?v_95 ?v_214) ?v_215)) (or (or ?v_184 ?v_21) ?v_216)) (or (or ?v_3 ?v_66) ?v_217)) (or (or ?v_154 ?v_85) ?v_81)) (or (or ?v_195 ?v_170) P15)) (or (or P14 ?v_71) ?v_189)) (or (or ?v_205 ?v_43) ?v_218)) (or (or ?v_219 ?v_220) ?v_240)) (or (or ?v_49 ?v_162) P13)) (or (or ?v_56 ?v_217) ?v_157)) (or (or ?v_143 ?v_215) P16)) (or (or ?v_221 ?v_161) ?v_167)) (or (or ?v_182 ?v_21) ?v_80)) (or (or ?v_132 ?v_56) P1)) (or (or ?v_208 ?v_213) ?v_62)) (or (or ?v_74 P5) ?v_222)) (or (or ?v_223 ?v_197) ?v_224)) (or (or ?v_225 ?v_191) ?v_195)) (or (or ?v_206 ?v_214) ?v_127)) (or (or ?v_226 ?v_179) ?v_13)) (or (or ?v_45 ?v_69) ?v_227)) (or (or ?v_228 ?v_122) ?v_218)) (or (or ?v_175 P13) ?v_116)) (or (or P16 ?v_127) ?v_45)) (or (or ?v_196 P12) ?v_244)) (or (or ?v_221 ?v_139) ?v_160)) (or (or ?v_28 P13) P4)) (or (or ?v_173 ?v_85) P6)) (or (or ?v_190 ?v_177) ?v_154)) (or (or P4 ?v_178) P14)) (or (or ?v_86 ?v_75) ?v_95)) (or (or P9 ?v_124) P13)) (or (or ?v_56 ?v_135) ?v_27)) (or (or P13 ?v_241) ?v_166)) (or (or ?v_196 ?v_109) ?v_229)) (or (or ?v_197 ?v_186) ?v_230)) (or (or ?v_213 ?v_27) ?v_231)) (or (or ?v_61 ?v_118) ?v_191)) (or (or ?v_62 ?v_161) P9)) (or (or ?v_187 ?v_206) ?v_122)) (or (or ?v_50 ?v_215) ?v_167)) (or (or ?v_116 P3) ?v_28)) (or (or ?v_141 ?v_28) ?v_208)) (or (or ?v_43 ?v_232) ?v_233)) (or (or ?v_198 ?v_212) ?v_146)) (or (or ?v_192 ?v_200) ?v_144)) (or (or ?v_99 ?v_81) ?v_157)) (or (or ?v_156 ?v_199) ?v_128)) (or (or ?v_99 ?v_62) ?v_152)) (or (or ?v_207 ?v_137) ?v_150)) (or (or ?v_55 ?v_234) ?v_183)) (or (or ?v_96 ?v_11) ?v_100)) (or (or ?v_133 ?v_119) ?v_161)) (or (or ?v_26 ?v_235) P2)) (or (or ?v_55 ?v_228) ?v_201)) (or (or P12 ?v_141) ?v_123)) (or (or ?v_152 ?v_255) ?v_52)) (or (or ?v_236 ?v_168) ?v_237)) (or (or ?v_238 ?v_235) ?v_68)) (or (or ?v_99 P12) ?v_144)) (or (or ?v_49 ?v_206) ?v_154)) (or (or ?v_212 ?v_163) P9)) (or (or ?v_141 ?v_194) ?v_18)) (or (or ?v_233 ?v_109) ?v_102)) (or (or ?v_195 ?v_216) ?v_156)) (or (or ?v_86 ?v_82) ?v_231)) (or (or P2 ?v_26) ?v_170)) (or (or ?v_195 ?v_66) ?v_160)) (or (or ?v_50 ?v_181) ?v_198)) (or (or ?v_131 ?v_163) ?v_174)) (or (or ?v_239 ?v_223) ?v_155)) (or (or ?v_201 ?v_81) ?v_149)) (or (or ?v_66 ?v_103) ?v_85)) (or (or ?v_190 ?v_36) ?v_13)) (or (or ?v_59 ?v_240) ?v_21)) (or (or ?v_59 P4) ?v_112)) (or (or ?v_211 ?v_152) ?v_213)) (or (or ?v_198 ?v_139) ?v_187)) (or (or ?v_181 ?v_217) ?v_110)) (or (or ?v_100 ?v_123) ?v_225)) (or (or ?v_236 ?v_231) ?v_172)) (or (or ?v_101 ?v_109) ?v_241)) (or (or ?v_201 ?v_242) ?v_143)) (or (or ?v_54 ?v_142) ?v_86)) (or (or ?v_243 ?v_197) ?v_124)) (or (or ?v_72 ?v_87) ?v_225)) (or (or ?v_126 ?v_181) ?v_43)) (or (or ?v_146 ?v_151) ?v_227)) (or (or ?v_119 P10) ?v_154)) (or (or ?v_248 ?v_75) ?v_100)) (or (or ?v_244 ?v_66) ?v_52)) (or (or ?v_26 ?v_130) ?v_203)) (or (or ?v_209 ?v_141) ?v_151)) (or (or ?v_71 ?v_76) ?v_74)) (or (or P12 ?v_216) ?v_143)) (or (or P19 P16) ?v_115)) (or (or ?v_74 P15) ?v_169)) (or (or ?v_140 ?v_245) ?v_127)) (or (or ?v_188 ?v_194) ?v_100)) (or (or ?v_126 ?v_38) ?v_170)) (or (or ?v_153 ?v_174) ?v_157)) (or (or ?v_55 ?v_220) ?v_230)) (or (or ?v_54 ?v_230) ?v_226)) (or (or ?v_216 ?v_108) ?v_136)) (or (or P14 ?v_208) ?v_152)) (or (or ?v_139 ?v_246) ?v_93)) (or (or ?v_92 ?v_124) ?v_62)) (or (or ?v_217 ?v_86) ?v_78)) (or (or ?v_173 P7) ?v_25)) (or (or ?v_247 ?v_248) ?v_47)) (or (or ?v_172 ?v_249) ?v_141)) (or (or ?v_99 ?v_250) ?v_175)) (or (or ?v_232 ?v_97) ?v_141)) (or (or ?v_162 ?v_55) ?v_163)) (or (or ?v_99 ?v_124) ?v_221)) (or (or ?v_245 ?v_110) ?v_181)) (or (or ?v_221 ?v_54) ?v_107)) (or (or ?v_199 ?v_188) ?v_214)) (or (or P6 ?v_161) ?v_169)) (or (or ?v_207 ?v_175) ?v_241)) (or (or ?v_41 ?v_251) ?v_174)) (or (or ?v_42 P4) ?v_76)) (or (or ?v_167 ?v_216) ?v_202)) (or (or ?v_244 ?v_55) ?v_237)) (or (or ?v_192 ?v_68) ?v_248)) (or (or ?v_229 ?v_193) ?v_41)) (or (or ?v_252 ?v_232) ?v_86)) (or (or ?v_247 ?v_91) ?v_253)) (or (or ?v_203 ?v_152) ?v_125)) (or (or ?v_250 ?v_105) ?v_102)) (or (or P8 ?v_254) ?v_184)) (or (or ?v_222 ?v_246) ?v_43)) (or (or ?v_86 ?v_51) ?v_186)) (or (or ?v_244 ?v_61) ?v_205)) (or (or ?v_238 ?v_175) ?v_232)) (or (or ?v_56 ?v_157) ?v_62)) (or (or ?v_25 ?v_190) ?v_17)) (or (or ?v_222 ?v_194) ?v_177)) (or (or ?v_216 ?v_83) ?v_75)) (or (or ?v_193 ?v_191) ?v_46)) (or (or P14 ?v_218) P5)) (or (or ?v_190 P5) ?v_231)) (or (or P9 ?v_185) P14)) (or (or P3 ?v_53) P17)) (or (or ?v_191 ?v_104) P16)) (or (or ?v_255 ?v_49) ?v_137)) (or (or ?v_237 ?v_143) ?v_100)) (or (or ?v_199 ?v_117) ?v_104)) (or (or ?v_119 ?v_254) ?v_97)) (or (or P10 ?v_140) ?v_53)) (or (or ?v_113 ?v_233) ?v_92)) (or (or ?v_130 P15) ?v_3)) (or (or ?v_191 ?v_160) ?v_123)) (or (or ?v_180 ?v_69) P14)) (or (or ?v_105 ?v_256) ?v_84)) (or (or ?v_141 ?v_71) ?v_236)) (or (or ?v_199 ?v_122) ?v_162)) (or (or ?v_42 ?v_175) ?v_52)) (or (or ?v_115 P14) P8)) (or (or ?v_69 P6) ?v_210)) (or (or ?v_152 ?v_133) ?v_240)) (or (or ?v_196 ?v_134) ?v_150)) (or (or ?v_151 ?v_224) ?v_107)) (or (or ?v_109 ?v_160) ?v_246)) (or (or ?v_252 ?v_118) ?v_255)) (or (or ?v_49 ?v_50) ?v_207)) (or (or ?v_199 ?v_15) ?v_153)) (or (or ?v_42 ?v_182) ?v_188)) (or (or ?v_138 ?v_91) ?v_127)) (or (or P13 ?v_215) ?v_134)) (or (or ?v_139 ?v_123) P6)) (or (or ?v_99 ?v_111) ?v_92)) (or (or ?v_110 ?v_245) ?v_116)) (or (or ?v_71 ?v_137) ?v_76)) (or (or ?v_140 ?v_66) ?v_54)) (or (or ?v_71 ?v_192) ?v_222)) (or (or ?v_54 P8) ?v_175)) (or (or ?v_184 ?v_84) ?v_113)) (or (or ?v_187 ?v_112) ?v_59)) (or (or ?v_61 ?v_111) ?v_181)) (or (or ?v_41 ?v_164) ?v_63)) (or (or ?v_160 ?v_95) ?v_52)) (or (or ?v_222 ?v_111) ?v_244)) (or (or P3 ?v_98) ?v_151)) (or (or ?v_252 ?v_27) ?v_110)) (or (or ?v_182 ?v_215) ?v_84)) (or (or ?v_107 ?v_97) ?v_176)) (or (or ?v_123 ?v_188) ?v_136)) (or (or ?v_153 ?v_183) ?v_44)) (or (or ?v_191 ?v_196) ?v_222)) (or (or P7 ?v_246) ?v_69)) (or (or ?v_17 ?v_197) P16)) (or (or ?v_215 ?v_172) ?v_230)) (or (or ?v_240 ?v_174) ?v_193)) (or (or ?v_197 ?v_171) ?v_232)) (or (or ?v_135 ?v_170) ?v_173)) (or (or ?v_196 ?v_56) ?v_129)) (or ?v_257 ?v_100)) (or (or ?v_141 ?v_104) ?v_226)) (or (or ?v_18 ?v_126) ?v_222)) (or (or ?v_46 P11) P5)) (or (or ?v_239 ?v_251) ?v_91)) (or (or ?v_109 ?v_211) ?v_171)) (or (or P19 ?v_124) ?v_91)) (or (or ?v_127 ?v_230) ?v_86)) (or (or ?v_154 ?v_42) P4)) (or (or ?v_47 ?v_99) ?v_115)) (or (or ?v_258 ?v_17) ?v_86)) (or (or ?v_141 ?v_103) ?v_152)) (or (or ?v_259 ?v_247) ?v_212)) (or (or ?v_139 ?v_201) P15)) (or (or ?v_205 P13) ?v_164)) (or (or ?v_82 ?v_134) ?v_17)) (or (or ?v_32 ?v_104) ?v_70)) (or (or ?v_117 ?v_244) ?v_93)) (or (or P12 ?v_188) ?v_176)) (or (or ?v_51 ?v_250) P6)) (or ?v_260 ?v_108)) (or (or ?v_139 ?v_203) ?v_124)) (or (or ?v_172 ?v_192) ?v_72)) (or (or ?v_163 ?v_253) P0)) (or (or ?v_92 ?v_218) ?v_159)) (or (or ?v_80 ?v_199) ?v_97)) (or (or ?v_69 ?v_83) ?v_183)) (or (or ?v_235 ?v_244) ?v_216)) (or (or ?v_237 ?v_171) ?v_174)) (or (or ?v_28 ?v_240) ?v_143)) (or (or ?v_21 ?v_99) ?v_211)) (or (or ?v_210 ?v_222) ?v_69)) (or (or P7 ?v_162) ?v_100)) (or (or ?v_132 ?v_135) ?v_237)) (or (or ?v_138 ?v_190) ?v_225)) (or (or P3 ?v_151) ?v_261)) (or (or ?v_126 P12) ?v_246)) (or (or ?v_184 ?v_228) ?v_143)) (or (or ?v_192 ?v_220) ?v_235)) (or (or ?v_62 ?v_156) ?v_98)) (or (or ?v_199 ?v_224) ?v_206)) (or (or ?v_117 ?v_259) P8)) (or (or ?v_232 ?v_51) ?v_129)) (or (or ?v_152 ?v_221) ?v_108)) (or (or P6 ?v_197) ?v_147)) (or (or ?v_3 ?v_206) P7)) (or (or ?v_200 ?v_214) ?v_215)) (or (or ?v_186 ?v_68) ?v_218)) (or (or ?v_139 P8) ?v_136)) (or (or ?v_256 ?v_87) ?v_43)) (or (or ?v_99 ?v_239) P14)) (or (or ?v_230 ?v_105) ?v_167)) (or (or ?v_216 ?v_72) ?v_241)) (or (or ?v_28 ?v_246) ?v_175)) (or (or ?v_52 ?v_223) ?v_139)) (or (or ?v_209 ?v_223) ?v_237)) (or (or ?v_135 ?v_26) ?v_177)) (or (or ?v_254 ?v_196) ?v_165)) (or (or ?v_242 ?v_171) ?v_134)) (or (or ?v_26 ?v_181) (not ?v_120))) (or (or ?v_98 ?v_172) ?v_173)) (or (or ?v_216 ?v_112) ?v_224)) (or (or ?v_111 ?v_205) ?v_159)) (or (or ?v_139 ?v_144) ?v_239)) (or (or P2 ?v_150) ?v_63)) (or (or ?v_112 ?v_91) ?v_258)) (or (or ?v_247 ?v_188) ?v_236)) (or (or ?v_213 ?v_49) ?v_186)) (or (or ?v_130 ?v_63) ?v_53)) (or (or ?v_112 ?v_54) ?v_76)) (or (or ?v_189 ?v_199) ?v_129)) (or (or ?v_95 ?v_13) ?v_177)) (or (or ?v_230 ?v_173) ?v_229)) (or (or ?v_213 ?v_56) P19)) (or (or ?v_3 ?v_148) ?v_126)) (or (or ?v_3 ?v_247) ?v_81)) (or (or ?v_181 ?v_50) ?v_146)) (or (or ?v_21 P10) ?v_92)) (or (or ?v_147 ?v_241) ?v_220)) (or (or ?v_164 ?v_13) ?v_44)) (or (or ?v_199 ?v_243) ?v_150)) (or (or ?v_240 ?v_191) ?v_232)) (or ?v_262 ?v_152)) (or (or ?v_237 ?v_195) ?v_137)) (or (or ?v_109 ?v_222) ?v_195)) (or (or ?v_128 ?v_93) ?v_219)) (or (or ?v_219 ?v_115) ?v_214)) (or (or ?v_50 ?v_237) P17)) (or (or ?v_87 ?v_18) ?v_120)) (or (or ?v_248 ?v_120) P9)) (or (or ?v_43 ?v_198) ?v_240)) (or (or ?v_101 ?v_184) P18)) (or (or ?v_143 P14) ?v_226)) (or (or ?v_25 ?v_127) ?v_181)) (or (or ?v_192 ?v_138) P7)) (or (or ?v_81 ?v_170) ?v_199)) (or (or ?v_152 ?v_173) P12)) (or (or P14 ?v_213) ?v_259)) (or (or ?v_44 ?v_99) ?v_235)) (or (or ?v_240 ?v_36) ?v_45)) (or (or ?v_25 ?v_72) ?v_159)) (or (or ?v_146 ?v_253) ?v_211)) (or (or ?v_151 ?v_59) ?v_169)) (or (or ?v_61 ?v_122) ?v_190)) (or (or ?v_247 ?v_194) ?v_103)) (or (or ?v_112 ?v_117) ?v_206)) (or (or ?v_100 ?v_148) ?v_160)) (or (or ?v_59 ?v_111) ?v_199)) (or (or ?v_216 ?v_85) ?v_161))))))))))))))))))))))))))))))))))))))))))))))))))))
(check-sat)
(exit)
